# CELL file written 11:25:56 (GMT+1.0) 6th September 2021 from run Si

%BLOCK lattice_cart
   ANG
       5.47545112629462       0.496819156878786E-35   0.110608096941637E-35
      0.496819156878786E-35    5.47545112629462      -0.312695835139248E-35
      0.110608096941637E-35  -0.312695835139248E-35    5.47545112629462    
%ENDBLOCK lattice_cart

%BLOCK cell_constraints
      1   1   1
      0   0   0
%ENDBLOCK cell_constraints

%BLOCK positions_frac
   Si             0.000000000000000       0.000000000000000       0.000000000000000
   Si             0.750000000000000       0.750000000000000       0.250000000000000
   Si             0.500000000000000       0.000000000000000       0.500000000000000
   Si             0.750000000000000       0.250000000000000       0.750000000000000
   Si             0.000000000000000       0.500000000000000       0.500000000000000
   Si             0.250000000000000       0.250000000000000       0.250000000000000
   Si             0.250000000000000       0.750000000000000       0.750000000000000
   Si             0.500000000000000       0.500000000000000       0.000000000000000
%ENDBLOCK positions_frac

FIX_ALL_IONS : true

%BLOCK species_pot
   Si      3|1.8|5|6|7|30:31:32
%ENDBLOCK species_pot

SYMMETRY_TOL :     0.001000

%BLOCK symmetry_ops
# Symm. op. 1       E
          1.000000000000000       0.000000000000000       0.000000000000000
          0.000000000000000       1.000000000000000       0.000000000000000
          0.000000000000000       0.000000000000000       1.000000000000000
          0.000000000000000       0.000000000000000       0.000000000000000
# Symm. op. 2       2
          1.000000000000000       0.000000000000000       0.000000000000000
          0.000000000000000      -1.000000000000000       0.000000000000000
          0.000000000000000       0.000000000000000      -1.000000000000000
          0.000000000000000       0.000000000000000       0.000000000000000
# Symm. op. 3       2
         -1.000000000000000       0.000000000000000       0.000000000000000
          0.000000000000000      -1.000000000000000       0.000000000000000
          0.000000000000000       0.000000000000000       1.000000000000000
          0.000000000000000       0.000000000000000       0.000000000000000
# Symm. op. 4       2
         -1.000000000000000       0.000000000000000       0.000000000000000
          0.000000000000000       1.000000000000000       0.000000000000000
          0.000000000000000       0.000000000000000      -1.000000000000000
          0.000000000000000       0.000000000000000       0.000000000000000
# Symm. op. 5      -4
          0.000000000000000       1.000000000000000       0.000000000000000
         -1.000000000000000       0.000000000000000       0.000000000000000
          0.000000000000000       0.000000000000000      -1.000000000000000
          0.000000000000000       0.000000000000000       0.000000000000000
# Symm. op. 6      -4
          0.000000000000000       0.000000000000000       1.000000000000000
          0.000000000000000      -1.000000000000000       0.000000000000000
         -1.000000000000000       0.000000000000000       0.000000000000000
          0.000000000000000       0.000000000000000       0.000000000000000
# Symm. op. 7       3
          0.000000000000000       1.000000000000000       0.000000000000000
          0.000000000000000       0.000000000000000       1.000000000000000
          1.000000000000000       0.000000000000000       0.000000000000000
          0.000000000000000       0.000000000000000       0.000000000000000
# Symm. op. 8       3
          0.000000000000000       0.000000000000000       1.000000000000000
          1.000000000000000       0.000000000000000       0.000000000000000
          0.000000000000000       1.000000000000000       0.000000000000000
          0.000000000000000       0.000000000000000       0.000000000000000
# Symm. op. 9       3
          0.000000000000000       0.000000000000000       1.000000000000000
         -1.000000000000000       0.000000000000000       0.000000000000000
          0.000000000000000      -1.000000000000000       0.000000000000000
          0.000000000000000       0.000000000000000       0.000000000000000
# Symm. op. 10      3
          0.000000000000000       1.000000000000000       0.000000000000000
          0.000000000000000       0.000000000000000      -1.000000000000000
         -1.000000000000000       0.000000000000000       0.000000000000000
          0.000000000000000       0.000000000000000       0.000000000000000
# Symm. op. 11      m
          0.000000000000000       1.000000000000000       0.000000000000000
          1.000000000000000       0.000000000000000       0.000000000000000
          0.000000000000000       0.000000000000000       1.000000000000000
          0.000000000000000       0.000000000000000       0.000000000000000
# Symm. op. 12      m
          1.000000000000000       0.000000000000000       0.000000000000000
          0.000000000000000       0.000000000000000      -1.000000000000000
          0.000000000000000      -1.000000000000000       0.000000000000000
          0.000000000000000       0.000000000000000       0.000000000000000
# Symm. op. 13      m
          1.000000000000000       0.000000000000000       0.000000000000000
          0.000000000000000       0.000000000000000       1.000000000000000
          0.000000000000000       1.000000000000000       0.000000000000000
          0.000000000000000       0.000000000000000       0.000000000000000
# Symm. op. 14      m
          0.000000000000000       0.000000000000000       1.000000000000000
          0.000000000000000       1.000000000000000       0.000000000000000
          1.000000000000000       0.000000000000000       0.000000000000000
          0.000000000000000       0.000000000000000       0.000000000000000
# Symm. op. 15      3
          0.000000000000000       0.000000000000000      -1.000000000000000
          1.000000000000000       0.000000000000000       0.000000000000000
          0.000000000000000      -1.000000000000000       0.000000000000000
          0.000000000000000       0.000000000000000       0.000000000000000
# Symm. op. 16      m
          0.000000000000000       0.000000000000000      -1.000000000000000
          0.000000000000000       1.000000000000000       0.000000000000000
         -1.000000000000000       0.000000000000000       0.000000000000000
          0.000000000000000       0.000000000000000       0.000000000000000
# Symm. op. 17      m
          0.000000000000000      -1.000000000000000       0.000000000000000
         -1.000000000000000       0.000000000000000       0.000000000000000
          0.000000000000000       0.000000000000000       1.000000000000000
          0.000000000000000       0.000000000000000       0.000000000000000
# Symm. op. 18     -4
          0.000000000000000      -1.000000000000000       0.000000000000000
          1.000000000000000       0.000000000000000       0.000000000000000
          0.000000000000000       0.000000000000000      -1.000000000000000
          0.000000000000000       0.000000000000000       0.000000000000000
# Symm. op. 19     -4
         -1.000000000000000       0.000000000000000       0.000000000000000
          0.000000000000000       0.000000000000000      -1.000000000000000
          0.000000000000000       1.000000000000000       0.000000000000000
          0.000000000000000       0.000000000000000       0.000000000000000
# Symm. op. 20     -4
         -1.000000000000000       0.000000000000000       0.000000000000000
          0.000000000000000       0.000000000000000       1.000000000000000
          0.000000000000000      -1.000000000000000       0.000000000000000
          0.000000000000000       0.000000000000000       0.000000000000000
# Symm. op. 21     -4
          0.000000000000000       0.000000000000000      -1.000000000000000
          0.000000000000000      -1.000000000000000       0.000000000000000
          1.000000000000000       0.000000000000000       0.000000000000000
          0.000000000000000       0.000000000000000       0.000000000000000
# Symm. op. 22      3
          0.000000000000000      -1.000000000000000       0.000000000000000
          0.000000000000000       0.000000000000000      -1.000000000000000
          1.000000000000000       0.000000000000000       0.000000000000000
          0.000000000000000       0.000000000000000       0.000000000000000
# Symm. op. 23      3
          0.000000000000000       0.000000000000000      -1.000000000000000
         -1.000000000000000       0.000000000000000       0.000000000000000
          0.000000000000000       1.000000000000000       0.000000000000000
          0.000000000000000       0.000000000000000       0.000000000000000
# Symm. op. 24      3
          0.000000000000000      -1.000000000000000       0.000000000000000
          0.000000000000000       0.000000000000000       1.000000000000000
         -1.000000000000000       0.000000000000000       0.000000000000000
          0.000000000000000       0.000000000000000       0.000000000000000
# Symm. op. 25      d
         -1.000000000000000       0.000000000000000       0.000000000000000
          0.000000000000000       1.000000000000000       0.000000000000000
          0.000000000000000       0.000000000000000       1.000000000000000
          0.250000000000000       0.250000000000000       0.250000000000000
# Symm. op. 26      I
         -1.000000000000000       0.000000000000000       0.000000000000000
          0.000000000000000      -1.000000000000000       0.000000000000000
          0.000000000000000       0.000000000000000      -1.000000000000000
          0.250000000000000       0.250000000000000       0.250000000000000
# Symm. op. 27      d
          1.000000000000000       0.000000000000000       0.000000000000000
          0.000000000000000       1.000000000000000       0.000000000000000
          0.000000000000000       0.000000000000000      -1.000000000000000
          0.250000000000000       0.250000000000000       0.250000000000000
# Symm. op. 28      d
          1.000000000000000       0.000000000000000       0.000000000000000
          0.000000000000000      -1.000000000000000       0.000000000000000
          0.000000000000000       0.000000000000000       1.000000000000000
          0.250000000000000       0.250000000000000       0.250000000000000
# Symm. op. 29      2
          0.000000000000000       0.000000000000000      -1.000000000000000
          0.000000000000000      -1.000000000000000       0.000000000000000
         -1.000000000000000       0.000000000000000       0.000000000000000
          0.250000000000000       0.250000000000000       0.250000000000000
# Symm. op. 30    4_1
          0.000000000000000       1.000000000000000       0.000000000000000
         -1.000000000000000       0.000000000000000       0.000000000000000
          0.000000000000000       0.000000000000000       1.000000000000000
          0.250000000000000       0.250000000000000       0.250000000000000
# Symm. op. 31    4_1
          1.000000000000000       0.000000000000000       0.000000000000000
          0.000000000000000       0.000000000000000       1.000000000000000
          0.000000000000000      -1.000000000000000       0.000000000000000
          0.250000000000000       0.250000000000000       0.250000000000000
# Symm. op. 32    4_1
          1.000000000000000       0.000000000000000       0.000000000000000
          0.000000000000000       0.000000000000000      -1.000000000000000
          0.000000000000000       1.000000000000000       0.000000000000000
          0.250000000000000       0.250000000000000       0.250000000000000
# Symm. op. 33    4_1
          0.000000000000000       0.000000000000000       1.000000000000000
          0.000000000000000       1.000000000000000       0.000000000000000
         -1.000000000000000       0.000000000000000       0.000000000000000
          0.250000000000000       0.250000000000000       0.250000000000000
# Symm. op. 34     -3
          0.000000000000000       1.000000000000000       0.000000000000000
          0.000000000000000       0.000000000000000       1.000000000000000
         -1.000000000000000       0.000000000000000       0.000000000000000
          0.250000000000000       0.250000000000000       0.250000000000000
# Symm. op. 35     -3
          0.000000000000000       0.000000000000000       1.000000000000000
          1.000000000000000       0.000000000000000       0.000000000000000
          0.000000000000000      -1.000000000000000       0.000000000000000
          0.250000000000000       0.250000000000000       0.250000000000000
# Symm. op. 36     -3
          0.000000000000000       1.000000000000000       0.000000000000000
          0.000000000000000       0.000000000000000      -1.000000000000000
          1.000000000000000       0.000000000000000       0.000000000000000
          0.250000000000000       0.250000000000000       0.250000000000000
# Symm. op. 37     -3
          0.000000000000000       0.000000000000000       1.000000000000000
         -1.000000000000000       0.000000000000000       0.000000000000000
          0.000000000000000       1.000000000000000       0.000000000000000
          0.250000000000000       0.250000000000000       0.250000000000000
# Symm. op. 38    2_1
          0.000000000000000       1.000000000000000       0.000000000000000
          1.000000000000000       0.000000000000000       0.000000000000000
          0.000000000000000       0.000000000000000      -1.000000000000000
          0.250000000000000       0.250000000000000       0.250000000000000
# Symm. op. 39    2_1
          0.000000000000000       0.000000000000000       1.000000000000000
          0.000000000000000      -1.000000000000000       0.000000000000000
          1.000000000000000       0.000000000000000       0.000000000000000
          0.250000000000000       0.250000000000000       0.250000000000000
# Symm. op. 40    4_1
          0.000000000000000      -1.000000000000000       0.000000000000000
          1.000000000000000       0.000000000000000       0.000000000000000
          0.000000000000000       0.000000000000000       1.000000000000000
          0.250000000000000       0.250000000000000       0.250000000000000
# Symm. op. 41    4_1
          0.000000000000000       0.000000000000000      -1.000000000000000
          0.000000000000000       1.000000000000000       0.000000000000000
          1.000000000000000       0.000000000000000       0.000000000000000
          0.250000000000000       0.250000000000000       0.250000000000000
# Symm. op. 42     -3
          0.000000000000000      -1.000000000000000       0.000000000000000
          0.000000000000000       0.000000000000000      -1.000000000000000
         -1.000000000000000       0.000000000000000       0.000000000000000
          0.250000000000000       0.250000000000000       0.250000000000000
# Symm. op. 43     -3
          0.000000000000000       0.000000000000000      -1.000000000000000
         -1.000000000000000       0.000000000000000       0.000000000000000
          0.000000000000000      -1.000000000000000       0.000000000000000
          0.250000000000000       0.250000000000000       0.250000000000000
# Symm. op. 44     -3
          0.000000000000000       0.000000000000000      -1.000000000000000
          1.000000000000000       0.000000000000000       0.000000000000000
          0.000000000000000       1.000000000000000       0.000000000000000
          0.250000000000000       0.250000000000000       0.250000000000000
# Symm. op. 45     -3
          0.000000000000000      -1.000000000000000       0.000000000000000
          0.000000000000000       0.000000000000000       1.000000000000000
          1.000000000000000       0.000000000000000       0.000000000000000
          0.250000000000000       0.250000000000000       0.250000000000000
# Symm. op. 46      2
          0.000000000000000      -1.000000000000000       0.000000000000000
         -1.000000000000000       0.000000000000000       0.000000000000000
          0.000000000000000       0.000000000000000      -1.000000000000000
          0.250000000000000       0.250000000000000       0.250000000000000
# Symm. op. 47    2_1
         -1.000000000000000       0.000000000000000       0.000000000000000
          0.000000000000000       0.000000000000000       1.000000000000000
          0.000000000000000       1.000000000000000       0.000000000000000
          0.250000000000000       0.250000000000000       0.250000000000000
# Symm. op. 48      2
         -1.000000000000000       0.000000000000000       0.000000000000000
          0.000000000000000       0.000000000000000      -1.000000000000000
          0.000000000000000      -1.000000000000000       0.000000000000000
          0.250000000000000       0.250000000000000       0.250000000000000
# Symm. op. 49      E
          1.000000000000000       0.000000000000000       0.000000000000000
          0.000000000000000       1.000000000000000       0.000000000000000
          0.000000000000000       0.000000000000000       1.000000000000000
          0.500000000000000       0.500000000000000       0.000000000000000
# Symm. op. 50      E
          1.000000000000000       0.000000000000000       0.000000000000000
          0.000000000000000       1.000000000000000       0.000000000000000
          0.000000000000000       0.000000000000000       1.000000000000000
          0.000000000000000       0.500000000000000       0.500000000000000
# Symm. op. 51      E
          1.000000000000000       0.000000000000000       0.000000000000000
          0.000000000000000       1.000000000000000       0.000000000000000
          0.000000000000000       0.000000000000000       1.000000000000000
          0.500000000000000       0.000000000000000       0.500000000000000
# Symm. op. 52    2_1
          1.000000000000000       0.000000000000000       0.000000000000000
          0.000000000000000      -1.000000000000000       0.000000000000000
          0.000000000000000       0.000000000000000      -1.000000000000000
          0.500000000000000       0.000000000000000       0.500000000000000
# Symm. op. 53    2_1
         -1.000000000000000       0.000000000000000       0.000000000000000
          0.000000000000000      -1.000000000000000       0.000000000000000
          0.000000000000000       0.000000000000000       1.000000000000000
          0.500000000000000       0.000000000000000       0.500000000000000
# Symm. op. 54      2
         -1.000000000000000       0.000000000000000       0.000000000000000
          0.000000000000000       1.000000000000000       0.000000000000000
          0.000000000000000       0.000000000000000      -1.000000000000000
          0.500000000000000       0.000000000000000       0.500000000000000
# Symm. op. 55      2
          1.000000000000000       0.000000000000000       0.000000000000000
          0.000000000000000      -1.000000000000000       0.000000000000000
          0.000000000000000       0.000000000000000      -1.000000000000000
          0.000000000000000       0.500000000000000       0.500000000000000
# Symm. op. 56    2_1
          1.000000000000000       0.000000000000000       0.000000000000000
          0.000000000000000      -1.000000000000000       0.000000000000000
          0.000000000000000       0.000000000000000      -1.000000000000000
          0.500000000000000       0.500000000000000       0.000000000000000
# Symm. op. 57    2_1
         -1.000000000000000       0.000000000000000       0.000000000000000
          0.000000000000000      -1.000000000000000       0.000000000000000
          0.000000000000000       0.000000000000000       1.000000000000000
          0.000000000000000       0.500000000000000       0.500000000000000
# Symm. op. 58    2_1
         -1.000000000000000       0.000000000000000       0.000000000000000
          0.000000000000000       1.000000000000000       0.000000000000000
          0.000000000000000       0.000000000000000      -1.000000000000000
          0.000000000000000       0.500000000000000       0.500000000000000
# Symm. op. 59      2
         -1.000000000000000       0.000000000000000       0.000000000000000
          0.000000000000000      -1.000000000000000       0.000000000000000
          0.000000000000000       0.000000000000000       1.000000000000000
          0.500000000000000       0.500000000000000       0.000000000000000
# Symm. op. 60    2_1
         -1.000000000000000       0.000000000000000       0.000000000000000
          0.000000000000000       1.000000000000000       0.000000000000000
          0.000000000000000       0.000000000000000      -1.000000000000000
          0.500000000000000       0.500000000000000       0.000000000000000
# Symm. op. 61     -4
          0.000000000000000       1.000000000000000       0.000000000000000
         -1.000000000000000       0.000000000000000       0.000000000000000
          0.000000000000000       0.000000000000000      -1.000000000000000
          0.500000000000000       0.000000000000000       0.500000000000000
# Symm. op. 62     -4
          0.000000000000000       0.000000000000000       1.000000000000000
          0.000000000000000      -1.000000000000000       0.000000000000000
         -1.000000000000000       0.000000000000000       0.000000000000000
          0.500000000000000       0.000000000000000       0.500000000000000
# Symm. op. 63    3_1
          0.000000000000000       1.000000000000000       0.000000000000000
          0.000000000000000       0.000000000000000       1.000000000000000
          1.000000000000000       0.000000000000000       0.000000000000000
          0.500000000000000       0.000000000000000       0.500000000000000
# Symm. op. 64    3_1
          0.000000000000000       0.000000000000000       1.000000000000000
          1.000000000000000       0.000000000000000       0.000000000000000
          0.000000000000000       1.000000000000000       0.000000000000000
          0.500000000000000       0.000000000000000       0.500000000000000
# Symm. op. 65    3_1
          0.000000000000000       0.000000000000000       1.000000000000000
         -1.000000000000000       0.000000000000000       0.000000000000000
          0.000000000000000      -1.000000000000000       0.000000000000000
          0.500000000000000       0.000000000000000       0.500000000000000
# Symm. op. 66      3
          0.000000000000000       1.000000000000000       0.000000000000000
          0.000000000000000       0.000000000000000      -1.000000000000000
         -1.000000000000000       0.000000000000000       0.000000000000000
          0.500000000000000       0.000000000000000       0.500000000000000
# Symm. op. 67      m
          0.000000000000000       1.000000000000000       0.000000000000000
          1.000000000000000       0.000000000000000       0.000000000000000
          0.000000000000000       0.000000000000000       1.000000000000000
          0.500000000000000       0.000000000000000       0.500000000000000
# Symm. op. 68      m
          1.000000000000000       0.000000000000000       0.000000000000000
          0.000000000000000       0.000000000000000      -1.000000000000000
          0.000000000000000      -1.000000000000000       0.000000000000000
          0.500000000000000       0.000000000000000       0.500000000000000
# Symm. op. 69      3
          0.000000000000000      -1.000000000000000       0.000000000000000
          0.000000000000000       0.000000000000000      -1.000000000000000
          1.000000000000000       0.000000000000000       0.000000000000000
          0.000000000000000       0.500000000000000       0.500000000000000
# Symm. op. 70    3_1
          0.000000000000000       0.000000000000000      -1.000000000000000
         -1.000000000000000       0.000000000000000       0.000000000000000
          0.000000000000000       1.000000000000000       0.000000000000000
          0.000000000000000       0.500000000000000       0.500000000000000
# Symm. op. 71      m
          0.000000000000000      -1.000000000000000       0.000000000000000
         -1.000000000000000       0.000000000000000       0.000000000000000
          0.000000000000000       0.000000000000000       1.000000000000000
          0.000000000000000       0.500000000000000       0.500000000000000
# Symm. op. 72      m
          0.000000000000000       0.000000000000000      -1.000000000000000
          0.000000000000000       1.000000000000000       0.000000000000000
         -1.000000000000000       0.000000000000000       0.000000000000000
          0.000000000000000       0.500000000000000       0.500000000000000
# Symm. op. 73     -4
          0.000000000000000       0.000000000000000      -1.000000000000000
          0.000000000000000      -1.000000000000000       0.000000000000000
          1.000000000000000       0.000000000000000       0.000000000000000
          0.500000000000000       0.500000000000000       0.000000000000000
# Symm. op. 74      3
          0.000000000000000      -1.000000000000000       0.000000000000000
          0.000000000000000       0.000000000000000      -1.000000000000000
          1.000000000000000       0.000000000000000       0.000000000000000
          0.500000000000000       0.500000000000000       0.000000000000000
# Symm. op. 75      3
          0.000000000000000       0.000000000000000      -1.000000000000000
         -1.000000000000000       0.000000000000000       0.000000000000000
          0.000000000000000       1.000000000000000       0.000000000000000
          0.500000000000000       0.500000000000000       0.000000000000000
# Symm. op. 76      3
          0.000000000000000      -1.000000000000000       0.000000000000000
          0.000000000000000       0.000000000000000       1.000000000000000
         -1.000000000000000       0.000000000000000       0.000000000000000
          0.500000000000000       0.500000000000000       0.000000000000000
# Symm. op. 77    3_1
          0.000000000000000       0.000000000000000      -1.000000000000000
          1.000000000000000       0.000000000000000       0.000000000000000
          0.000000000000000      -1.000000000000000       0.000000000000000
          0.500000000000000       0.500000000000000       0.000000000000000
# Symm. op. 78      m
          0.000000000000000      -1.000000000000000       0.000000000000000
         -1.000000000000000       0.000000000000000       0.000000000000000
          0.000000000000000       0.000000000000000       1.000000000000000
          0.500000000000000       0.500000000000000       0.000000000000000
# Symm. op. 79      m
          0.000000000000000       0.000000000000000      -1.000000000000000
          0.000000000000000       1.000000000000000       0.000000000000000
         -1.000000000000000       0.000000000000000       0.000000000000000
          0.500000000000000       0.500000000000000       0.000000000000000
# Symm. op. 80      n
          0.000000000000000       0.000000000000000       1.000000000000000
          0.000000000000000       1.000000000000000       0.000000000000000
          1.000000000000000       0.000000000000000       0.000000000000000
          0.500000000000000       0.000000000000000       0.500000000000000
# Symm. op. 81     -4
          0.000000000000000      -1.000000000000000       0.000000000000000
          1.000000000000000       0.000000000000000       0.000000000000000
          0.000000000000000       0.000000000000000      -1.000000000000000
          0.500000000000000       0.000000000000000       0.500000000000000
# Symm. op. 82     -4
         -1.000000000000000       0.000000000000000       0.000000000000000
          0.000000000000000       0.000000000000000      -1.000000000000000
          0.000000000000000       1.000000000000000       0.000000000000000
          0.500000000000000       0.000000000000000       0.500000000000000
# Symm. op. 83     -4
         -1.000000000000000       0.000000000000000       0.000000000000000
          0.000000000000000       0.000000000000000       1.000000000000000
          0.000000000000000      -1.000000000000000       0.000000000000000
          0.500000000000000       0.000000000000000       0.500000000000000
# Symm. op. 84     -4
          0.000000000000000       0.000000000000000      -1.000000000000000
          0.000000000000000      -1.000000000000000       0.000000000000000
          1.000000000000000       0.000000000000000       0.000000000000000
          0.500000000000000       0.000000000000000       0.500000000000000
# Symm. op. 85    3_1
          0.000000000000000      -1.000000000000000       0.000000000000000
          0.000000000000000       0.000000000000000      -1.000000000000000
          1.000000000000000       0.000000000000000       0.000000000000000
          0.500000000000000       0.000000000000000       0.500000000000000
# Symm. op. 86      3
          0.000000000000000       0.000000000000000      -1.000000000000000
         -1.000000000000000       0.000000000000000       0.000000000000000
          0.000000000000000       1.000000000000000       0.000000000000000
          0.500000000000000       0.000000000000000       0.500000000000000
# Symm. op. 87      3
          0.000000000000000      -1.000000000000000       0.000000000000000
          0.000000000000000       0.000000000000000       1.000000000000000
         -1.000000000000000       0.000000000000000       0.000000000000000
          0.500000000000000       0.000000000000000       0.500000000000000
# Symm. op. 88      3
          0.000000000000000       0.000000000000000      -1.000000000000000
          1.000000000000000       0.000000000000000       0.000000000000000
          0.000000000000000      -1.000000000000000       0.000000000000000
          0.500000000000000       0.000000000000000       0.500000000000000