%BLOCK LATTICE_CART
ang    # angstrom units
   2.524370000000000   0.000000000000000   0.000000000000000
   1.262185000000000   2.186168548551323   0.000000000000000
   1.262185000000000   0.728722849517108   2.061139473996524
%ENDBLOCK LATTICE_CART

%BLOCK POSITIONS_FRAC
C    0.000000000000000   0.000000000000000   0.000000000000000 
C    0.250000000000000   0.250000000000000   0.250000000000000 
%ENDBLOCK POSITIONS_FRAC

# Commented out pseudopotential block for easy editing
#%BLOCK SPECIES_POT
# C   C_00.usp
#%ENDBLOCK SPECIES_POT

%BLOCK SYMMETRY_OPS
# Symm. op. 1
  1.000000000000000   0.000000000000000   0.000000000000000 
  0.000000000000000   1.000000000000000   0.000000000000000 
  0.000000000000000   0.000000000000000   1.000000000000000 
  0.000000000000000   0.000000000000000   0.000000000000000 
%ENDBLOCK SYMMETRY_OPS
