%BLOCK LATTICE_CART
   14.18160000000000   0.000000000000000   0.000000000000000
   0.000000000000000   14.18160000000000   0.000000000000000
   0.000000000000000   0.000000000000000   14.18160000000000
%ENDBLOCK LATTICE_CART

%BLOCK POSITIONS_FRAC
V             0.0791557133        0.0000005853        0.1708904764
V             0.9161667724        0.0000005823        0.8325662729
Si            0.4996287249        0.8331358706        0.8331663251
H             0.1666672745        0.0000018274        0.0833332099
%ENDBLOCK POSITIONS_FRAC
